
Gurobi 8.1.1 (win64, Python) logging started 01/10/20 23:38:42

Academic license - for non-commercial use only

Gurobi 8.1.1 (win64, Python) logging started 01/10/20 23:39:14

Academic license - for non-commercial use only
